Cr-W-C-F-F
1.00
 3.733999967600      0.000000000000      0.000000000000
-1.866999983800      3.233738829700      0.000000000000
 0.000000000000      0.000000000000     25.000000000000
C Cr F W
1 1 2 1
CARTESIAN
	0.00000000	0.00000000	7.52701521	C
	1.86700182	1.07791182	9.23060062	Cr
	-0.00000189	2.15582691	9.98123471	F
	1.86700182	1.07791182	5.07279437	F
	-0.00000189	2.15582691	5.82342845	W
