Cr-Cr-C-Br-OCN                          
   1.00000000000000     
     3.2158266339215769   -0.0000000000000000    0.0000000000000000
    -1.6079133169607884    2.7849875591458271   -0.0000000000000000
    -0.0000000000000000    0.0000000000000002   33.7057016932773124
   Br   C    Cr   N    O 
     1     2     2     1     1
Direct
  0.3333329854322145  0.6666669831836742  0.3620475977058702
 -0.0000000000000000 -0.0000000000000000  0.2807281390556269
  0.6666669847440474  0.3333329859851446  0.1767317126291765
  0.3333329854322145  0.6666669831836742  0.2523192464885260
  0.6666669847440474  0.3333329859851446  0.3086374142597960
  0.6666669847440474  0.3333329859851446  0.1414266593852977
  0.6666669847440474  0.3333329859851446  0.2161357140757016
 
  0.00000000E+00  0.00000000E+00  0.00000000E+00
  0.00000000E+00  0.00000000E+00  0.00000000E+00
  0.00000000E+00  0.00000000E+00  0.00000000E+00
  0.00000000E+00  0.00000000E+00  0.00000000E+00
  0.00000000E+00  0.00000000E+00  0.00000000E+00
  0.00000000E+00  0.00000000E+00  0.00000000E+00
  0.00000000E+00  0.00000000E+00  0.00000000E+00
