Cr-Cr-C-Br-Br                           
   1.00000000000000     
     3.2610059082534573    0.0000000000000000    0.0000000000000000
    -1.6305029541267286    2.8241139584273127   -0.0000000000000000
    -0.0000000000000000    0.0000000000000001   32.7782268877860332
   Br   C    Cr
     2     1     2
Direct
  0.3333329854322145  0.6666669831836742  0.3825964767952332
  0.6666669847440474  0.3333329859851446  0.2195646864047684
  0.0000000000000000  0.0000000000000000  0.3010806083999995
  0.3333329854322145  0.6666669831836742  0.2746152008654627
  0.6666669847440474  0.3333329859851446  0.3275459619345318
 
  0.00000000E+00  0.00000000E+00  0.00000000E+00
  0.00000000E+00  0.00000000E+00  0.00000000E+00
  0.00000000E+00  0.00000000E+00  0.00000000E+00
  0.00000000E+00  0.00000000E+00  0.00000000E+00
  0.00000000E+00  0.00000000E+00  0.00000000E+00
