Cr-Cr-C-Cl-Br                           
   1.00000000000000     
     3.2429419363725409   -0.0000000000000000   -0.0000000000000000
    -1.6214709681862705    2.8084700998869629   -0.0000000000000000
     0.0000000000000001   -0.0000000000000002   33.1444092397694234
   Br   C    Cl   Cr
     1     1     1     2
Direct
  0.6666669847440474  0.3333329859851446  0.2199535525647456
 -0.0000000000000000 -0.0000000000000000  0.3019890463467559
  0.3333329854322145  0.6666669831836742  0.3790717294335167
  0.3333329854322145  0.6666669831836742  0.2739579563312227
  0.6666669847440474  0.3333329859851446  0.3304306497237547
 
  0.00000000E+00  0.00000000E+00  0.00000000E+00
  0.00000000E+00  0.00000000E+00  0.00000000E+00
  0.00000000E+00  0.00000000E+00  0.00000000E+00
  0.00000000E+00  0.00000000E+00  0.00000000E+00
  0.00000000E+00  0.00000000E+00  0.00000000E+00
