Cr-Cr-C-Br-OH                           
   1.00000000000000     
     3.1563362983324708   -0.0000000000000000    0.0000000000000000
    -1.5781681491662354    2.7334674172496949    0.0000000000000000
    -0.0000000000000000   -0.0000000000000000   34.9882393458352254
   Br   C    Cr   H    O 
     1     1     2     1     1
Direct
  0.3333329854322145  0.6666669831836742  0.3694495563672986
  0.0000000000000000 -0.0000000000000000  0.2910247819410300
  0.3333329854322145  0.6666669831836742  0.2634257817167757
  0.6666669847440474  0.3333329859851446  0.3165605673070019
  0.6666669847440474  0.3333329859851446  0.2006115627266242
  0.6666669847440474  0.3333329859851446  0.2288424591412631
 
  0.00000000E+00  0.00000000E+00  0.00000000E+00
  0.00000000E+00  0.00000000E+00  0.00000000E+00
  0.00000000E+00  0.00000000E+00  0.00000000E+00
  0.00000000E+00  0.00000000E+00  0.00000000E+00
  0.00000000E+00  0.00000000E+00  0.00000000E+00
  0.00000000E+00  0.00000000E+00  0.00000000E+00
