Cr-Cr-C-Br-H                            
   1.00000000000000     
     3.1287227325612923   -0.0000000000000000   -0.0000000000000000
    -1.5643613662806461    2.7095533677874437    0.0000000000000000
    -0.0000000000000000   -0.0000000000000002   35.6085650622891379
   Br   C    Cr   H 
     1     1     2     1
Direct
  0.3333329854322145  0.6666669831836742  0.3740451832697188
 -0.0000000000000000 -0.0000000000000000  0.2961350809116260
  0.3333329854322145  0.6666669831836742  0.2695259191070066
  0.6666669847440474  0.3333329859851446  0.3220620376484425
  0.6666669847440474  0.3333329859851446  0.2436347134632018
 
  0.00000000E+00  0.00000000E+00  0.00000000E+00
  0.00000000E+00  0.00000000E+00  0.00000000E+00
  0.00000000E+00  0.00000000E+00  0.00000000E+00
  0.00000000E+00  0.00000000E+00  0.00000000E+00
  0.00000000E+00  0.00000000E+00  0.00000000E+00
